; benchmark generated from python API
(set-info :status unknown)
(declare-fun cell_1_1 () Int)
(declare-fun cell_1_6 () Int)
(declare-fun cell_2_3 () Int)
(declare-fun cell_2_4 () Int)
(declare-fun cell_3_7 () Int)
(declare-fun cell_3_8 () Int)
(declare-fun cell_4_2 () Int)
(declare-fun cell_4_9 () Int)
(declare-fun cell_5_4 () Int)
(declare-fun cell_5_5 () Int)
(declare-fun cell_6_8 () Int)
(declare-fun cell_7_9 () Int)
(declare-fun cell_8_5 () Int)
(declare-fun cell_9_1 () Int)
(declare-fun cell_2_1 () Int)
(declare-fun cell_3_1 () Int)
(declare-fun cell_4_1 () Int)
(declare-fun cell_5_1 () Int)
(declare-fun cell_6_1 () Int)
(declare-fun cell_7_1 () Int)
(declare-fun cell_8_1 () Int)
(declare-fun cell_1_2 () Int)
(declare-fun cell_2_2 () Int)
(declare-fun cell_3_2 () Int)
(declare-fun cell_5_2 () Int)
(declare-fun cell_6_2 () Int)
(declare-fun cell_7_2 () Int)
(declare-fun cell_8_2 () Int)
(declare-fun cell_9_2 () Int)
(declare-fun cell_1_3 () Int)
(declare-fun cell_3_3 () Int)
(declare-fun cell_4_3 () Int)
(declare-fun cell_5_3 () Int)
(declare-fun cell_6_3 () Int)
(declare-fun cell_7_3 () Int)
(declare-fun cell_8_3 () Int)
(declare-fun cell_9_3 () Int)
(declare-fun cell_1_4 () Int)
(declare-fun cell_3_4 () Int)
(declare-fun cell_4_4 () Int)
(declare-fun cell_6_4 () Int)
(declare-fun cell_7_4 () Int)
(declare-fun cell_8_4 () Int)
(declare-fun cell_9_4 () Int)
(declare-fun cell_1_5 () Int)
(declare-fun cell_2_5 () Int)
(declare-fun cell_3_5 () Int)
(declare-fun cell_4_5 () Int)
(declare-fun cell_6_5 () Int)
(declare-fun cell_7_5 () Int)
(declare-fun cell_9_5 () Int)
(declare-fun cell_2_6 () Int)
(declare-fun cell_3_6 () Int)
(declare-fun cell_4_6 () Int)
(declare-fun cell_5_6 () Int)
(declare-fun cell_6_6 () Int)
(declare-fun cell_7_6 () Int)
(declare-fun cell_8_6 () Int)
(declare-fun cell_9_6 () Int)
(declare-fun cell_1_7 () Int)
(declare-fun cell_2_7 () Int)
(declare-fun cell_4_7 () Int)
(declare-fun cell_5_7 () Int)
(declare-fun cell_6_7 () Int)
(declare-fun cell_7_7 () Int)
(declare-fun cell_8_7 () Int)
(declare-fun cell_9_7 () Int)
(declare-fun cell_1_8 () Int)
(declare-fun cell_2_8 () Int)
(declare-fun cell_4_8 () Int)
(declare-fun cell_5_8 () Int)
(declare-fun cell_7_8 () Int)
(declare-fun cell_8_8 () Int)
(declare-fun cell_9_8 () Int)
(declare-fun cell_1_9 () Int)
(declare-fun cell_2_9 () Int)
(declare-fun cell_3_9 () Int)
(declare-fun cell_5_9 () Int)
(declare-fun cell_6_9 () Int)
(declare-fun cell_8_9 () Int)
(declare-fun cell_9_9 () Int)
(assert
 (= cell_1_1 2))
(assert
 (= cell_1_6 1))
(assert
 (= cell_2_3 1))
(assert
 (= cell_2_4 2))
(assert
 (= cell_3_7 1))
(assert
 (= cell_3_8 2))
(assert
 (= cell_4_2 1))
(assert
 (= cell_4_9 2))
(assert
 (= cell_5_4 1))
(assert
 (= cell_5_5 2))
(assert
 (= cell_6_8 1))
(assert
 (= cell_7_9 1))
(assert
 (= cell_8_5 1))
(assert
 (= cell_9_1 1))
(assert
 (let (($x10127 (= cell_1_1 2)))
 (or (= cell_1_1 1) $x10127 (= cell_1_1 3) (= cell_1_1 4) (= cell_1_1 5) (= cell_1_1 6) (= cell_1_1 7) (= cell_1_1 8) (= cell_1_1 9))))
(assert
 (let (($x4354 (= cell_2_1 9)))
 (let (($x3739 (= cell_2_1 8)))
 (let (($x3866 (= cell_2_1 7)))
 (let (($x8299 (= cell_2_1 6)))
 (let (($x5853 (= cell_2_1 5)))
 (let (($x8158 (= cell_2_1 4)))
 (let (($x4254 (= cell_2_1 3)))
 (let (($x9957 (= cell_2_1 2)))
 (let (($x4379 (= cell_2_1 1)))
 (or $x4379 $x9957 $x4254 $x8158 $x5853 $x8299 $x3866 $x3739 $x4354)))))))))))
(assert
 (let (($x5890 (= cell_3_1 9)))
 (let (($x8931 (= cell_3_1 8)))
 (let (($x4508 (= cell_3_1 7)))
 (let (($x2263 (= cell_3_1 6)))
 (let (($x8700 (= cell_3_1 5)))
 (let (($x7153 (= cell_3_1 4)))
 (let (($x863 (= cell_3_1 3)))
 (let (($x8673 (= cell_3_1 2)))
 (let (($x6613 (= cell_3_1 1)))
 (or $x6613 $x8673 $x863 $x7153 $x8700 $x2263 $x4508 $x8931 $x5890)))))))))))
(assert
 (let (($x8442 (= cell_4_1 9)))
 (let (($x8240 (= cell_4_1 8)))
 (let (($x2686 (= cell_4_1 7)))
 (let (($x8888 (= cell_4_1 6)))
 (let (($x5743 (= cell_4_1 5)))
 (let (($x2888 (= cell_4_1 4)))
 (let (($x5228 (= cell_4_1 3)))
 (let (($x8273 (= cell_4_1 2)))
 (let (($x10226 (= cell_4_1 1)))
 (or $x10226 $x8273 $x5228 $x2888 $x5743 $x8888 $x2686 $x8240 $x8442)))))))))))
(assert
 (let (($x847 (= cell_5_1 9)))
 (let (($x81 (= cell_5_1 8)))
 (let (($x3263 (= cell_5_1 7)))
 (let (($x9452 (= cell_5_1 6)))
 (let (($x2681 (= cell_5_1 5)))
 (let (($x6004 (= cell_5_1 4)))
 (let (($x9108 (= cell_5_1 3)))
 (let (($x8760 (= cell_5_1 2)))
 (let (($x2901 (= cell_5_1 1)))
 (or $x2901 $x8760 $x9108 $x6004 $x2681 $x9452 $x3263 $x81 $x847)))))))))))
(assert
 (let (($x8457 (= cell_6_1 9)))
 (let (($x1286 (= cell_6_1 8)))
 (let (($x3244 (= cell_6_1 7)))
 (let (($x3418 (= cell_6_1 6)))
 (let (($x2481 (= cell_6_1 5)))
 (let (($x4044 (= cell_6_1 4)))
 (let (($x3060 (= cell_6_1 3)))
 (let (($x8991 (= cell_6_1 2)))
 (let (($x6238 (= cell_6_1 1)))
 (or $x6238 $x8991 $x3060 $x4044 $x2481 $x3418 $x3244 $x1286 $x8457)))))))))))
(assert
 (let (($x4455 (= cell_7_1 9)))
 (let (($x4849 (= cell_7_1 8)))
 (let (($x2802 (= cell_7_1 7)))
 (let (($x5997 (= cell_7_1 6)))
 (let (($x146 (= cell_7_1 5)))
 (let (($x3585 (= cell_7_1 4)))
 (let (($x2964 (= cell_7_1 3)))
 (let (($x7174 (= cell_7_1 2)))
 (let (($x9910 (= cell_7_1 1)))
 (or $x9910 $x7174 $x2964 $x3585 $x146 $x5997 $x2802 $x4849 $x4455)))))))))))
(assert
 (let (($x6817 (= cell_8_1 9)))
 (let (($x71 (= cell_8_1 8)))
 (let (($x5646 (= cell_8_1 7)))
 (let (($x6024 (= cell_8_1 6)))
 (let (($x9656 (= cell_8_1 5)))
 (let (($x5283 (= cell_8_1 4)))
 (let (($x4417 (= cell_8_1 3)))
 (let (($x5369 (= cell_8_1 2)))
 (let (($x4360 (= cell_8_1 1)))
 (or $x4360 $x5369 $x4417 $x5283 $x9656 $x6024 $x5646 $x71 $x6817)))))))))))
(assert
 (let (($x9537 (= cell_9_1 1)))
 (or $x9537 (= cell_9_1 2) (= cell_9_1 3) (= cell_9_1 4) (= cell_9_1 5) (= cell_9_1 6) (= cell_9_1 7) (= cell_9_1 8) (= cell_9_1 9))))
(assert
 (let (($x2231 (= cell_1_2 9)))
 (let (($x2736 (= cell_1_2 8)))
 (let (($x4978 (= cell_1_2 7)))
 (let (($x2200 (= cell_1_2 6)))
 (let (($x2111 (= cell_1_2 5)))
 (let (($x7783 (= cell_1_2 4)))
 (let (($x1901 (= cell_1_2 3)))
 (let (($x6148 (= cell_1_2 2)))
 (let (($x1639 (= cell_1_2 1)))
 (or $x1639 $x6148 $x1901 $x7783 $x2111 $x2200 $x4978 $x2736 $x2231)))))))))))
(assert
 (let (($x767 (= cell_2_2 9)))
 (let (($x9583 (= cell_2_2 8)))
 (let (($x10203 (= cell_2_2 7)))
 (let (($x10208 (= cell_2_2 6)))
 (let (($x57 (= cell_2_2 5)))
 (let (($x7777 (= cell_2_2 4)))
 (let (($x9458 (= cell_2_2 3)))
 (let (($x3952 (= cell_2_2 2)))
 (let (($x3068 (= cell_2_2 1)))
 (or $x3068 $x3952 $x9458 $x7777 $x57 $x10208 $x10203 $x9583 $x767)))))))))))
(assert
 (let (($x579 (= cell_3_2 9)))
 (let (($x3248 (= cell_3_2 8)))
 (let (($x8579 (= cell_3_2 7)))
 (let (($x4958 (= cell_3_2 6)))
 (let (($x5291 (= cell_3_2 5)))
 (let (($x6918 (= cell_3_2 4)))
 (let (($x8671 (= cell_3_2 3)))
 (let (($x1541 (= cell_3_2 2)))
 (let (($x6433 (= cell_3_2 1)))
 (or $x6433 $x1541 $x8671 $x6918 $x5291 $x4958 $x8579 $x3248 $x579)))))))))))
(assert
 (let (($x9557 (= cell_4_2 1)))
 (or $x9557 (= cell_4_2 2) (= cell_4_2 3) (= cell_4_2 4) (= cell_4_2 5) (= cell_4_2 6) (= cell_4_2 7) (= cell_4_2 8) (= cell_4_2 9))))
(assert
 (let (($x9956 (= cell_5_2 9)))
 (let (($x3985 (= cell_5_2 8)))
 (let (($x5924 (= cell_5_2 7)))
 (let (($x6246 (= cell_5_2 6)))
 (let (($x9679 (= cell_5_2 5)))
 (let (($x838 (= cell_5_2 4)))
 (let (($x168 (= cell_5_2 3)))
 (let (($x8676 (= cell_5_2 2)))
 (let (($x9001 (= cell_5_2 1)))
 (or $x9001 $x8676 $x168 $x838 $x9679 $x6246 $x5924 $x3985 $x9956)))))))))))
(assert
 (let (($x5167 (= cell_6_2 9)))
 (let (($x1989 (= cell_6_2 8)))
 (let (($x23 (= cell_6_2 7)))
 (let (($x9987 (= cell_6_2 6)))
 (let (($x5627 (= cell_6_2 5)))
 (let (($x1906 (= cell_6_2 4)))
 (let (($x10050 (= cell_6_2 3)))
 (let (($x7877 (= cell_6_2 2)))
 (let (($x8913 (= cell_6_2 1)))
 (or $x8913 $x7877 $x10050 $x1906 $x5627 $x9987 $x23 $x1989 $x5167)))))))))))
(assert
 (let (($x10065 (= cell_7_2 9)))
 (let (($x7099 (= cell_7_2 8)))
 (let (($x3770 (= cell_7_2 7)))
 (let (($x327 (= cell_7_2 6)))
 (let (($x4135 (= cell_7_2 5)))
 (let (($x7263 (= cell_7_2 4)))
 (let (($x5252 (= cell_7_2 3)))
 (let (($x1520 (= cell_7_2 2)))
 (let (($x5383 (= cell_7_2 1)))
 (or $x5383 $x1520 $x5252 $x7263 $x4135 $x327 $x3770 $x7099 $x10065)))))))))))
(assert
 (let (($x8885 (= cell_8_2 9)))
 (let (($x2757 (= cell_8_2 8)))
 (let (($x3543 (= cell_8_2 7)))
 (let (($x10037 (= cell_8_2 6)))
 (let (($x1298 (= cell_8_2 5)))
 (let (($x1706 (= cell_8_2 4)))
 (let (($x1424 (= cell_8_2 3)))
 (let (($x3352 (= cell_8_2 2)))
 (let (($x9566 (= cell_8_2 1)))
 (or $x9566 $x3352 $x1424 $x1706 $x1298 $x10037 $x3543 $x2757 $x8885)))))))))))
(assert
 (let (($x5877 (= cell_9_2 2)))
 (let (($x5245 (= cell_9_2 1)))
 (or $x5245 $x5877 (= cell_9_2 3) (= cell_9_2 4) (= cell_9_2 5) (= cell_9_2 6) (= cell_9_2 7) (= cell_9_2 8) (= cell_9_2 9)))))
(assert
 (let (($x5526 (= cell_1_3 9)))
 (let (($x6095 (= cell_1_3 8)))
 (let (($x6599 (= cell_1_3 7)))
 (let (($x7740 (= cell_1_3 6)))
 (let (($x8981 (= cell_1_3 5)))
 (let (($x8412 (= cell_1_3 4)))
 (let (($x3934 (= cell_1_3 3)))
 (let (($x6887 (= cell_1_3 2)))
 (let (($x10129 (= cell_1_3 1)))
 (or $x10129 $x6887 $x3934 $x8412 $x8981 $x7740 $x6599 $x6095 $x5526)))))))))))
(assert
 (let (($x9804 (= cell_2_3 1)))
 (or $x9804 (= cell_2_3 2) (= cell_2_3 3) (= cell_2_3 4) (= cell_2_3 5) (= cell_2_3 6) (= cell_2_3 7) (= cell_2_3 8) (= cell_2_3 9))))
(assert
 (let (($x2153 (= cell_3_3 9)))
 (let (($x6440 (= cell_3_3 8)))
 (let (($x6837 (= cell_3_3 7)))
 (let (($x5826 (= cell_3_3 6)))
 (let (($x6162 (= cell_3_3 5)))
 (let (($x7426 (= cell_3_3 4)))
 (let (($x7870 (= cell_3_3 3)))
 (let (($x851 (= cell_3_3 2)))
 (let (($x4036 (= cell_3_3 1)))
 (or $x4036 $x851 $x7870 $x7426 $x6162 $x5826 $x6837 $x6440 $x2153)))))))))))
(assert
 (let (($x3705 (= cell_4_3 9)))
 (let (($x1415 (= cell_4_3 8)))
 (let (($x8542 (= cell_4_3 7)))
 (let (($x7308 (= cell_4_3 6)))
 (let (($x3138 (= cell_4_3 5)))
 (let (($x9055 (= cell_4_3 4)))
 (let (($x2279 (= cell_4_3 3)))
 (let (($x6664 (= cell_4_3 2)))
 (let (($x8056 (= cell_4_3 1)))
 (or $x8056 $x6664 $x2279 $x9055 $x3138 $x7308 $x8542 $x1415 $x3705)))))))))))
(assert
 (let (($x4846 (= cell_5_3 9)))
 (let (($x7838 (= cell_5_3 8)))
 (let (($x5425 (= cell_5_3 7)))
 (let (($x3304 (= cell_5_3 6)))
 (let (($x5254 (= cell_5_3 5)))
 (let (($x9474 (= cell_5_3 4)))
 (let (($x433 (= cell_5_3 3)))
 (let (($x1651 (= cell_5_3 2)))
 (let (($x8801 (= cell_5_3 1)))
 (or $x8801 $x1651 $x433 $x9474 $x5254 $x3304 $x5425 $x7838 $x4846)))))))))))
(assert
 (let (($x9443 (= cell_6_3 9)))
 (let (($x6827 (= cell_6_3 8)))
 (let (($x8655 (= cell_6_3 7)))
 (let (($x4701 (= cell_6_3 6)))
 (let (($x2719 (= cell_6_3 5)))
 (let (($x8761 (= cell_6_3 4)))
 (let (($x4510 (= cell_6_3 3)))
 (let (($x1636 (= cell_6_3 2)))
 (let (($x9005 (= cell_6_3 1)))
 (or $x9005 $x1636 $x4510 $x8761 $x2719 $x4701 $x8655 $x6827 $x9443)))))))))))
(assert
 (let (($x6536 (= cell_7_3 9)))
 (let (($x9227 (= cell_7_3 8)))
 (let (($x9936 (= cell_7_3 7)))
 (let (($x4245 (= cell_7_3 6)))
 (let (($x6441 (= cell_7_3 5)))
 (let (($x6844 (= cell_7_3 4)))
 (let (($x8496 (= cell_7_3 3)))
 (let (($x3190 (= cell_7_3 2)))
 (let (($x6927 (= cell_7_3 1)))
 (or $x6927 $x3190 $x8496 $x6844 $x6441 $x4245 $x9936 $x9227 $x6536)))))))))))
(assert
 (let (($x15 (= cell_8_3 9)))
 (let (($x8383 (= cell_8_3 8)))
 (let (($x2764 (= cell_8_3 7)))
 (let (($x7517 (= cell_8_3 6)))
 (let (($x2527 (= cell_8_3 5)))
 (let (($x4269 (= cell_8_3 4)))
 (let (($x7429 (= cell_8_3 3)))
 (let (($x1509 (= cell_8_3 2)))
 (let (($x10148 (= cell_8_3 1)))
 (or $x10148 $x1509 $x7429 $x4269 $x2527 $x7517 $x2764 $x8383 $x15)))))))))))
(assert
 (let (($x9296 (= cell_9_3 1)))
 (or $x9296 (= cell_9_3 2) (= cell_9_3 3) (= cell_9_3 4) (= cell_9_3 5) (= cell_9_3 6) (= cell_9_3 7) (= cell_9_3 8) (= cell_9_3 9))))
(assert
 (let (($x4208 (= cell_1_4 9)))
 (let (($x1049 (= cell_1_4 8)))
 (let (($x8847 (= cell_1_4 7)))
 (let (($x9588 (= cell_1_4 6)))
 (let (($x6611 (= cell_1_4 5)))
 (let (($x675 (= cell_1_4 4)))
 (let (($x5631 (= cell_1_4 3)))
 (let (($x6378 (= cell_1_4 2)))
 (let (($x8114 (= cell_1_4 1)))
 (or $x8114 $x6378 $x5631 $x675 $x6611 $x9588 $x8847 $x1049 $x4208)))))))))))
(assert
 (let (($x9338 (= cell_2_4 2)))
 (or (= cell_2_4 1) $x9338 (= cell_2_4 3) (= cell_2_4 4) (= cell_2_4 5) (= cell_2_4 6) (= cell_2_4 7) (= cell_2_4 8) (= cell_2_4 9))))
(assert
 (let (($x2011 (= cell_3_4 9)))
 (let (($x8923 (= cell_3_4 8)))
 (let (($x10034 (= cell_3_4 7)))
 (let (($x7961 (= cell_3_4 6)))
 (let (($x6094 (= cell_3_4 5)))
 (let (($x7268 (= cell_3_4 4)))
 (let (($x2499 (= cell_3_4 3)))
 (let (($x2707 (= cell_3_4 2)))
 (let (($x2911 (= cell_3_4 1)))
 (or $x2911 $x2707 $x2499 $x7268 $x6094 $x7961 $x10034 $x8923 $x2011)))))))))))
(assert
 (let (($x6411 (= cell_4_4 9)))
 (let (($x3042 (= cell_4_4 8)))
 (let (($x7408 (= cell_4_4 7)))
 (let (($x5047 (= cell_4_4 6)))
 (let (($x8813 (= cell_4_4 5)))
 (let (($x8189 (= cell_4_4 4)))
 (let (($x4347 (= cell_4_4 3)))
 (let (($x177 (= cell_4_4 2)))
 (let (($x2138 (= cell_4_4 1)))
 (or $x2138 $x177 $x4347 $x8189 $x8813 $x5047 $x7408 $x3042 $x6411)))))))))))
(assert
 (let (($x4675 (= cell_5_4 1)))
 (or $x4675 (= cell_5_4 2) (= cell_5_4 3) (= cell_5_4 4) (= cell_5_4 5) (= cell_5_4 6) (= cell_5_4 7) (= cell_5_4 8) (= cell_5_4 9))))
(assert
 (let (($x5058 (= cell_6_4 9)))
 (let (($x1282 (= cell_6_4 8)))
 (let (($x3981 (= cell_6_4 7)))
 (let (($x491 (= cell_6_4 6)))
 (let (($x1489 (= cell_6_4 5)))
 (let (($x3027 (= cell_6_4 4)))
 (let (($x4607 (= cell_6_4 3)))
 (let (($x7041 (= cell_6_4 2)))
 (let (($x479 (= cell_6_4 1)))
 (or $x479 $x7041 $x4607 $x3027 $x1489 $x491 $x3981 $x1282 $x5058)))))))))))
(assert
 (let (($x9396 (= cell_7_4 9)))
 (let (($x7166 (= cell_7_4 8)))
 (let (($x8768 (= cell_7_4 7)))
 (let (($x1037 (= cell_7_4 6)))
 (let (($x7404 (= cell_7_4 5)))
 (let (($x6180 (= cell_7_4 4)))
 (let (($x8799 (= cell_7_4 3)))
 (let (($x5477 (= cell_7_4 2)))
 (let (($x8716 (= cell_7_4 1)))
 (or $x8716 $x5477 $x8799 $x6180 $x7404 $x1037 $x8768 $x7166 $x9396)))))))))))
(assert
 (let (($x4292 (= cell_8_4 9)))
 (let (($x8549 (= cell_8_4 8)))
 (let (($x5585 (= cell_8_4 7)))
 (let (($x345 (= cell_8_4 6)))
 (let (($x9324 (= cell_8_4 5)))
 (let (($x8352 (= cell_8_4 4)))
 (let (($x6529 (= cell_8_4 3)))
 (let (($x8125 (= cell_8_4 2)))
 (let (($x7138 (= cell_8_4 1)))
 (or $x7138 $x8125 $x6529 $x8352 $x9324 $x345 $x5585 $x8549 $x4292)))))))))))
(assert
 (let (($x9415 (= cell_9_4 2)))
 (let (($x7691 (= cell_9_4 1)))
 (or $x7691 $x9415 (= cell_9_4 3) (= cell_9_4 4) (= cell_9_4 5) (= cell_9_4 6) (= cell_9_4 7) (= cell_9_4 8) (= cell_9_4 9)))))
(assert
 (let (($x2505 (= cell_1_5 9)))
 (let (($x7472 (= cell_1_5 8)))
 (let (($x631 (= cell_1_5 7)))
 (let (($x5541 (= cell_1_5 6)))
 (let (($x709 (= cell_1_5 5)))
 (let (($x2835 (= cell_1_5 4)))
 (let (($x4227 (= cell_1_5 3)))
 (let (($x6758 (= cell_1_5 2)))
 (let (($x3170 (= cell_1_5 1)))
 (or $x3170 $x6758 $x4227 $x2835 $x709 $x5541 $x631 $x7472 $x2505)))))))))))
(assert
 (let (($x1521 (= cell_2_5 9)))
 (let (($x949 (= cell_2_5 8)))
 (let (($x5433 (= cell_2_5 7)))
 (let (($x4859 (= cell_2_5 6)))
 (let (($x3468 (= cell_2_5 5)))
 (let (($x4027 (= cell_2_5 4)))
 (let (($x8979 (= cell_2_5 3)))
 (let (($x1006 (= cell_2_5 2)))
 (let (($x9929 (= cell_2_5 1)))
 (or $x9929 $x1006 $x8979 $x4027 $x3468 $x4859 $x5433 $x949 $x1521)))))))))))
(assert
 (let (($x9643 (= cell_3_5 9)))
 (let (($x575 (= cell_3_5 8)))
 (let (($x9015 (= cell_3_5 7)))
 (let (($x2844 (= cell_3_5 6)))
 (let (($x9612 (= cell_3_5 5)))
 (let (($x7459 (= cell_3_5 4)))
 (let (($x2147 (= cell_3_5 3)))
 (let (($x9489 (= cell_3_5 2)))
 (let (($x264 (= cell_3_5 1)))
 (or $x264 $x9489 $x2147 $x7459 $x9612 $x2844 $x9015 $x575 $x9643)))))))))))
(assert
 (let (($x9490 (= cell_4_5 9)))
 (let (($x9271 (= cell_4_5 8)))
 (let (($x4820 (= cell_4_5 7)))
 (let (($x899 (= cell_4_5 6)))
 (let (($x2052 (= cell_4_5 5)))
 (let (($x3675 (= cell_4_5 4)))
 (let (($x1467 (= cell_4_5 3)))
 (let (($x439 (= cell_4_5 2)))
 (let (($x459 (= cell_4_5 1)))
 (or $x459 $x439 $x1467 $x3675 $x2052 $x899 $x4820 $x9271 $x9490)))))))))))
(assert
 (let (($x7078 (= cell_5_5 2)))
 (or (= cell_5_5 1) $x7078 (= cell_5_5 3) (= cell_5_5 4) (= cell_5_5 5) (= cell_5_5 6) (= cell_5_5 7) (= cell_5_5 8) (= cell_5_5 9))))
(assert
 (let (($x9779 (= cell_6_5 9)))
 (let (($x3257 (= cell_6_5 8)))
 (let (($x724 (= cell_6_5 7)))
 (let (($x9225 (= cell_6_5 6)))
 (let (($x3628 (= cell_6_5 5)))
 (let (($x10209 (= cell_6_5 4)))
 (let (($x8622 (= cell_6_5 3)))
 (let (($x3310 (= cell_6_5 2)))
 (let (($x2674 (= cell_6_5 1)))
 (or $x2674 $x3310 $x8622 $x10209 $x3628 $x9225 $x724 $x3257 $x9779)))))))))))
(assert
 (let (($x2696 (= cell_7_5 9)))
 (let (($x3291 (= cell_7_5 8)))
 (let (($x6724 (= cell_7_5 7)))
 (let (($x1057 (= cell_7_5 6)))
 (let (($x7888 (= cell_7_5 5)))
 (let (($x2741 (= cell_7_5 4)))
 (let (($x1051 (= cell_7_5 3)))
 (let (($x5306 (= cell_7_5 2)))
 (let (($x590 (= cell_7_5 1)))
 (or $x590 $x5306 $x1051 $x2741 $x7888 $x1057 $x6724 $x3291 $x2696)))))))))))
(assert
 (let (($x4735 (= cell_8_5 1)))
 (or $x4735 (= cell_8_5 2) (= cell_8_5 3) (= cell_8_5 4) (= cell_8_5 5) (= cell_8_5 6) (= cell_8_5 7) (= cell_8_5 8) (= cell_8_5 9))))
(assert
 (let (($x1625 (= cell_9_5 2)))
 (let (($x7727 (= cell_9_5 1)))
 (or $x7727 $x1625 (= cell_9_5 3) (= cell_9_5 4) (= cell_9_5 5) (= cell_9_5 6) (= cell_9_5 7) (= cell_9_5 8) (= cell_9_5 9)))))
(assert
 (let (($x3209 (= cell_1_6 1)))
 (or $x3209 (= cell_1_6 2) (= cell_1_6 3) (= cell_1_6 4) (= cell_1_6 5) (= cell_1_6 6) (= cell_1_6 7) (= cell_1_6 8) (= cell_1_6 9))))
(assert
 (let (($x7613 (= cell_2_6 9)))
 (let (($x3405 (= cell_2_6 8)))
 (let (($x6472 (= cell_2_6 7)))
 (let (($x5488 (= cell_2_6 6)))
 (let (($x846 (= cell_2_6 5)))
 (let (($x4197 (= cell_2_6 4)))
 (let (($x6590 (= cell_2_6 3)))
 (let (($x8650 (= cell_2_6 2)))
 (let (($x7657 (= cell_2_6 1)))
 (or $x7657 $x8650 $x6590 $x4197 $x846 $x5488 $x6472 $x3405 $x7613)))))))))))
(assert
 (let (($x4007 (= cell_3_6 9)))
 (let (($x7050 (= cell_3_6 8)))
 (let (($x856 (= cell_3_6 7)))
 (let (($x936 (= cell_3_6 6)))
 (let (($x1111 (= cell_3_6 5)))
 (let (($x9867 (= cell_3_6 4)))
 (let (($x10140 (= cell_3_6 3)))
 (let (($x4495 (= cell_3_6 2)))
 (let (($x5592 (= cell_3_6 1)))
 (or $x5592 $x4495 $x10140 $x9867 $x1111 $x936 $x856 $x7050 $x4007)))))))))))
(assert
 (let (($x1234 (= cell_4_6 9)))
 (let (($x9725 (= cell_4_6 8)))
 (let (($x3290 (= cell_4_6 7)))
 (let (($x3729 (= cell_4_6 6)))
 (let (($x6652 (= cell_4_6 5)))
 (let (($x1396 (= cell_4_6 4)))
 (let (($x4840 (= cell_4_6 3)))
 (let (($x9765 (= cell_4_6 2)))
 (let (($x4962 (= cell_4_6 1)))
 (or $x4962 $x9765 $x4840 $x1396 $x6652 $x3729 $x3290 $x9725 $x1234)))))))))))
(assert
 (let (($x960 (= cell_5_6 2)))
 (let (($x7627 (= cell_5_6 1)))
 (or $x7627 $x960 (= cell_5_6 3) (= cell_5_6 4) (= cell_5_6 5) (= cell_5_6 6) (= cell_5_6 7) (= cell_5_6 8) (= cell_5_6 9)))))
(assert
 (let (($x3848 (= cell_6_6 9)))
 (let (($x5522 (= cell_6_6 8)))
 (let (($x4476 (= cell_6_6 7)))
 (let (($x9074 (= cell_6_6 6)))
 (let (($x7089 (= cell_6_6 5)))
 (let (($x4939 (= cell_6_6 4)))
 (let (($x1637 (= cell_6_6 3)))
 (let (($x8020 (= cell_6_6 2)))
 (let (($x9411 (= cell_6_6 1)))
 (or $x9411 $x8020 $x1637 $x4939 $x7089 $x9074 $x4476 $x5522 $x3848)))))))))))
(assert
 (let (($x8976 (= cell_7_6 9)))
 (let (($x7053 (= cell_7_6 8)))
 (let (($x8625 (= cell_7_6 7)))
 (let (($x8763 (= cell_7_6 6)))
 (let (($x2370 (= cell_7_6 5)))
 (let (($x8104 (= cell_7_6 4)))
 (let (($x6602 (= cell_7_6 3)))
 (let (($x9246 (= cell_7_6 2)))
 (let (($x9362 (= cell_7_6 1)))
 (or $x9362 $x9246 $x6602 $x8104 $x2370 $x8763 $x8625 $x7053 $x8976)))))))))))
(assert
 (let (($x3133 (= cell_8_6 1)))
 (or $x3133 (= cell_8_6 2) (= cell_8_6 3) (= cell_8_6 4) (= cell_8_6 5) (= cell_8_6 6) (= cell_8_6 7) (= cell_8_6 8) (= cell_8_6 9))))
(assert
 (let (($x5190 (= cell_9_6 1)))
 (or $x5190 (= cell_9_6 2) (= cell_9_6 3) (= cell_9_6 4) (= cell_9_6 5) (= cell_9_6 6) (= cell_9_6 7) (= cell_9_6 8) (= cell_9_6 9))))
(assert
 (let (($x5620 (= cell_1_7 9)))
 (let (($x7382 (= cell_1_7 8)))
 (let (($x4704 (= cell_1_7 7)))
 (let (($x4264 (= cell_1_7 6)))
 (let (($x6493 (= cell_1_7 5)))
 (let (($x9318 (= cell_1_7 4)))
 (let (($x5604 (= cell_1_7 3)))
 (let (($x475 (= cell_1_7 2)))
 (let (($x8672 (= cell_1_7 1)))
 (or $x8672 $x475 $x5604 $x9318 $x6493 $x4264 $x4704 $x7382 $x5620)))))))))))
(assert
 (let (($x213 (= cell_2_7 9)))
 (let (($x78 (= cell_2_7 8)))
 (let (($x10171 (= cell_2_7 7)))
 (let (($x3327 (= cell_2_7 6)))
 (let (($x4696 (= cell_2_7 5)))
 (let (($x738 (= cell_2_7 4)))
 (let (($x3742 (= cell_2_7 3)))
 (let (($x2989 (= cell_2_7 2)))
 (let (($x8002 (= cell_2_7 1)))
 (or $x8002 $x2989 $x3742 $x738 $x4696 $x3327 $x10171 $x78 $x213)))))))))))
(assert
 (let (($x5950 (= cell_3_7 1)))
 (or $x5950 (= cell_3_7 2) (= cell_3_7 3) (= cell_3_7 4) (= cell_3_7 5) (= cell_3_7 6) (= cell_3_7 7) (= cell_3_7 8) (= cell_3_7 9))))
(assert
 (let (($x5390 (= cell_4_7 9)))
 (let (($x7653 (= cell_4_7 8)))
 (let (($x1644 (= cell_4_7 7)))
 (let (($x6877 (= cell_4_7 6)))
 (let (($x6120 (= cell_4_7 5)))
 (let (($x3953 (= cell_4_7 4)))
 (let (($x237 (= cell_4_7 3)))
 (let (($x8306 (= cell_4_7 2)))
 (let (($x1685 (= cell_4_7 1)))
 (or $x1685 $x8306 $x237 $x3953 $x6120 $x6877 $x1644 $x7653 $x5390)))))))))))
(assert
 (let (($x3825 (= cell_5_7 9)))
 (let (($x4412 (= cell_5_7 8)))
 (let (($x1451 (= cell_5_7 7)))
 (let (($x1592 (= cell_5_7 6)))
 (let (($x8373 (= cell_5_7 5)))
 (let (($x8386 (= cell_5_7 4)))
 (let (($x1184 (= cell_5_7 3)))
 (let (($x3568 (= cell_5_7 2)))
 (let (($x1208 (= cell_5_7 1)))
 (or $x1208 $x3568 $x1184 $x8386 $x8373 $x1592 $x1451 $x4412 $x3825)))))))))))
(assert
 (let (($x5217 (= cell_6_7 9)))
 (let (($x8644 (= cell_6_7 8)))
 (let (($x7410 (= cell_6_7 7)))
 (let (($x5203 (= cell_6_7 6)))
 (let (($x1340 (= cell_6_7 5)))
 (let (($x4975 (= cell_6_7 4)))
 (let (($x4267 (= cell_6_7 3)))
 (let (($x7388 (= cell_6_7 2)))
 (let (($x4058 (= cell_6_7 1)))
 (or $x4058 $x7388 $x4267 $x4975 $x1340 $x5203 $x7410 $x8644 $x5217)))))))))))
(assert
 (let (($x4579 (= cell_7_7 9)))
 (let (($x8345 (= cell_7_7 8)))
 (let (($x926 (= cell_7_7 7)))
 (let (($x3030 (= cell_7_7 6)))
 (let (($x5594 (= cell_7_7 5)))
 (let (($x3233 (= cell_7_7 4)))
 (let (($x4205 (= cell_7_7 3)))
 (let (($x9030 (= cell_7_7 2)))
 (let (($x7330 (= cell_7_7 1)))
 (or $x7330 $x9030 $x4205 $x3233 $x5594 $x3030 $x926 $x8345 $x4579)))))))))))
(assert
 (let (($x986 (= cell_8_7 1)))
 (or $x986 (= cell_8_7 2) (= cell_8_7 3) (= cell_8_7 4) (= cell_8_7 5) (= cell_8_7 6) (= cell_8_7 7) (= cell_8_7 8) (= cell_8_7 9))))
(assert
 (let (($x2472 (= cell_9_7 1)))
 (or $x2472 (= cell_9_7 2) (= cell_9_7 3) (= cell_9_7 4) (= cell_9_7 5) (= cell_9_7 6) (= cell_9_7 7) (= cell_9_7 8) (= cell_9_7 9))))
(assert
 (let (($x448 (= cell_1_8 9)))
 (let (($x358 (= cell_1_8 8)))
 (let (($x4650 (= cell_1_8 7)))
 (let (($x362 (= cell_1_8 6)))
 (let (($x6865 (= cell_1_8 5)))
 (let (($x6803 (= cell_1_8 4)))
 (let (($x8995 (= cell_1_8 3)))
 (let (($x6 (= cell_1_8 2)))
 (let (($x9506 (= cell_1_8 1)))
 (or $x9506 $x6 $x8995 $x6803 $x6865 $x362 $x4650 $x358 $x448)))))))))))
(assert
 (let (($x7829 (= cell_2_8 9)))
 (let (($x2581 (= cell_2_8 8)))
 (let (($x9000 (= cell_2_8 7)))
 (let (($x4623 (= cell_2_8 6)))
 (let (($x948 (= cell_2_8 5)))
 (let (($x1133 (= cell_2_8 4)))
 (let (($x9628 (= cell_2_8 3)))
 (let (($x2128 (= cell_2_8 2)))
 (let (($x1299 (= cell_2_8 1)))
 (or $x1299 $x2128 $x9628 $x1133 $x948 $x4623 $x9000 $x2581 $x7829)))))))))))
(assert
 (let (($x1801 (= cell_3_8 2)))
 (or (= cell_3_8 1) $x1801 (= cell_3_8 3) (= cell_3_8 4) (= cell_3_8 5) (= cell_3_8 6) (= cell_3_8 7) (= cell_3_8 8) (= cell_3_8 9))))
(assert
 (let (($x1517 (= cell_4_8 9)))
 (let (($x9466 (= cell_4_8 8)))
 (let (($x3839 (= cell_4_8 7)))
 (let (($x8464 (= cell_4_8 6)))
 (let (($x7430 (= cell_4_8 5)))
 (let (($x8561 (= cell_4_8 4)))
 (let (($x8276 (= cell_4_8 3)))
 (let (($x3156 (= cell_4_8 2)))
 (let (($x526 (= cell_4_8 1)))
 (or $x526 $x3156 $x8276 $x8561 $x7430 $x8464 $x3839 $x9466 $x1517)))))))))))
(assert
 (let (($x2847 (= cell_5_8 9)))
 (let (($x2920 (= cell_5_8 8)))
 (let (($x8246 (= cell_5_8 7)))
 (let (($x5054 (= cell_5_8 6)))
 (let (($x4577 (= cell_5_8 5)))
 (let (($x1295 (= cell_5_8 4)))
 (let (($x7013 (= cell_5_8 3)))
 (let (($x6251 (= cell_5_8 2)))
 (let (($x1249 (= cell_5_8 1)))
 (or $x1249 $x6251 $x7013 $x1295 $x4577 $x5054 $x8246 $x2920 $x2847)))))))))))
(assert
 (let (($x957 (= cell_6_8 1)))
 (or $x957 (= cell_6_8 2) (= cell_6_8 3) (= cell_6_8 4) (= cell_6_8 5) (= cell_6_8 6) (= cell_6_8 7) (= cell_6_8 8) (= cell_6_8 9))))
(assert
 (let (($x7075 (= cell_7_8 9)))
 (let (($x8230 (= cell_7_8 8)))
 (let (($x3621 (= cell_7_8 7)))
 (let (($x3823 (= cell_7_8 6)))
 (let (($x5901 (= cell_7_8 5)))
 (let (($x3903 (= cell_7_8 4)))
 (let (($x8737 (= cell_7_8 3)))
 (let (($x9786 (= cell_7_8 2)))
 (let (($x7557 (= cell_7_8 1)))
 (or $x7557 $x9786 $x8737 $x3903 $x5901 $x3823 $x3621 $x8230 $x7075)))))))))))
(assert
 (let (($x3129 (= cell_8_8 2)))
 (let (($x9029 (= cell_8_8 1)))
 (or $x9029 $x3129 (= cell_8_8 3) (= cell_8_8 4) (= cell_8_8 5) (= cell_8_8 6) (= cell_8_8 7) (= cell_8_8 8) (= cell_8_8 9)))))
(assert
 (let (($x872 (= cell_9_8 2)))
 (let (($x2999 (= cell_9_8 1)))
 (or $x2999 $x872 (= cell_9_8 3) (= cell_9_8 4) (= cell_9_8 5) (= cell_9_8 6) (= cell_9_8 7) (= cell_9_8 8) (= cell_9_8 9)))))
(assert
 (let (($x7562 (= cell_1_9 9)))
 (let (($x9767 (= cell_1_9 8)))
 (let (($x2160 (= cell_1_9 7)))
 (let (($x6368 (= cell_1_9 6)))
 (let (($x3147 (= cell_1_9 5)))
 (let (($x5990 (= cell_1_9 4)))
 (let (($x5995 (= cell_1_9 3)))
 (let (($x3105 (= cell_1_9 2)))
 (let (($x1103 (= cell_1_9 1)))
 (or $x1103 $x3105 $x5995 $x5990 $x3147 $x6368 $x2160 $x9767 $x7562)))))))))))
(assert
 (let (($x2048 (= cell_2_9 9)))
 (let (($x1443 (= cell_2_9 8)))
 (let (($x2895 (= cell_2_9 7)))
 (let (($x6487 (= cell_2_9 6)))
 (let (($x5177 (= cell_2_9 5)))
 (let (($x6017 (= cell_2_9 4)))
 (let (($x2613 (= cell_2_9 3)))
 (let (($x4728 (= cell_2_9 2)))
 (let (($x9559 (= cell_2_9 1)))
 (or $x9559 $x4728 $x2613 $x6017 $x5177 $x6487 $x2895 $x1443 $x2048)))))))))))
(assert
 (let (($x2132 (= cell_3_9 9)))
 (let (($x8723 (= cell_3_9 8)))
 (let (($x4813 (= cell_3_9 7)))
 (let (($x3458 (= cell_3_9 6)))
 (let (($x6995 (= cell_3_9 5)))
 (let (($x5583 (= cell_3_9 4)))
 (let (($x9962 (= cell_3_9 3)))
 (let (($x485 (= cell_3_9 2)))
 (let (($x622 (= cell_3_9 1)))
 (or $x622 $x485 $x9962 $x5583 $x6995 $x3458 $x4813 $x8723 $x2132)))))))))))
(assert
 (let (($x249 (= cell_4_9 2)))
 (or (= cell_4_9 1) $x249 (= cell_4_9 3) (= cell_4_9 4) (= cell_4_9 5) (= cell_4_9 6) (= cell_4_9 7) (= cell_4_9 8) (= cell_4_9 9))))
(assert
 (let (($x4652 (= cell_5_9 9)))
 (let (($x6029 (= cell_5_9 8)))
 (let (($x1772 (= cell_5_9 7)))
 (let (($x2762 (= cell_5_9 6)))
 (let (($x6773 (= cell_5_9 5)))
 (let (($x2975 (= cell_5_9 4)))
 (let (($x7529 (= cell_5_9 3)))
 (let (($x5979 (= cell_5_9 2)))
 (let (($x10083 (= cell_5_9 1)))
 (or $x10083 $x5979 $x7529 $x2975 $x6773 $x2762 $x1772 $x6029 $x4652)))))))))))
(assert
 (let (($x8872 (= cell_6_9 9)))
 (let (($x32 (= cell_6_9 8)))
 (let (($x4615 (= cell_6_9 7)))
 (let (($x7534 (= cell_6_9 6)))
 (let (($x192 (= cell_6_9 5)))
 (let (($x2433 (= cell_6_9 4)))
 (let (($x3642 (= cell_6_9 3)))
 (let (($x2521 (= cell_6_9 2)))
 (let (($x4581 (= cell_6_9 1)))
 (or $x4581 $x2521 $x3642 $x2433 $x192 $x7534 $x4615 $x32 $x8872)))))))))))
(assert
 (let (($x6588 (= cell_7_9 1)))
 (or $x6588 (= cell_7_9 2) (= cell_7_9 3) (= cell_7_9 4) (= cell_7_9 5) (= cell_7_9 6) (= cell_7_9 7) (= cell_7_9 8) (= cell_7_9 9))))
(assert
 (let (($x5702 (= cell_8_9 2)))
 (let (($x1570 (= cell_8_9 1)))
 (or $x1570 $x5702 (= cell_8_9 3) (= cell_8_9 4) (= cell_8_9 5) (= cell_8_9 6) (= cell_8_9 7) (= cell_8_9 8) (= cell_8_9 9)))))
(assert
 (let (($x763 (= cell_9_9 2)))
 (let (($x636 (= cell_9_9 1)))
 (or $x636 $x763 (= cell_9_9 3) (= cell_9_9 4) (= cell_9_9 5) (= cell_9_9 6) (= cell_9_9 7) (= cell_9_9 8) (= cell_9_9 9)))))
(assert
 (and (distinct cell_1_1 cell_1_2 cell_1_3 cell_1_4 cell_1_5 cell_1_6 cell_1_7 cell_1_8 cell_1_9) true))
(assert
 (and (distinct cell_2_1 cell_2_2 cell_2_3 cell_2_4 cell_2_5 cell_2_6 cell_2_7 cell_2_8 cell_2_9) true))
(assert
 (and (distinct cell_3_1 cell_3_2 cell_3_3 cell_3_4 cell_3_5 cell_3_6 cell_3_7 cell_3_8 cell_3_9) true))
(assert
 (and (distinct cell_4_1 cell_4_2 cell_4_3 cell_4_4 cell_4_5 cell_4_6 cell_4_7 cell_4_8 cell_4_9) true))
(assert
 (and (distinct cell_5_1 cell_5_2 cell_5_3 cell_5_4 cell_5_5 cell_5_6 cell_5_7 cell_5_8 cell_5_9) true))
(assert
 (and (distinct cell_6_1 cell_6_2 cell_6_3 cell_6_4 cell_6_5 cell_6_6 cell_6_7 cell_6_8 cell_6_9) true))
(assert
 (and (distinct cell_7_1 cell_7_2 cell_7_3 cell_7_4 cell_7_5 cell_7_6 cell_7_7 cell_7_8 cell_7_9) true))
(assert
 (and (distinct cell_8_1 cell_8_2 cell_8_3 cell_8_4 cell_8_5 cell_8_6 cell_8_7 cell_8_8 cell_8_9) true))
(assert
 (and (distinct cell_9_1 cell_9_2 cell_9_3 cell_9_4 cell_9_5 cell_9_6 cell_9_7 cell_9_8 cell_9_9) true))
(assert
 (and (distinct cell_1_1 cell_2_1 cell_3_1 cell_4_1 cell_5_1 cell_6_1 cell_7_1 cell_8_1 cell_9_1) true))
(assert
 (and (distinct cell_1_2 cell_2_2 cell_3_2 cell_4_2 cell_5_2 cell_6_2 cell_7_2 cell_8_2 cell_9_2) true))
(assert
 (and (distinct cell_1_3 cell_2_3 cell_3_3 cell_4_3 cell_5_3 cell_6_3 cell_7_3 cell_8_3 cell_9_3) true))
(assert
 (and (distinct cell_1_4 cell_2_4 cell_3_4 cell_4_4 cell_5_4 cell_6_4 cell_7_4 cell_8_4 cell_9_4) true))
(assert
 (and (distinct cell_1_5 cell_2_5 cell_3_5 cell_4_5 cell_5_5 cell_6_5 cell_7_5 cell_8_5 cell_9_5) true))
(assert
 (and (distinct cell_1_6 cell_2_6 cell_3_6 cell_4_6 cell_5_6 cell_6_6 cell_7_6 cell_8_6 cell_9_6) true))
(assert
 (and (distinct cell_1_7 cell_2_7 cell_3_7 cell_4_7 cell_5_7 cell_6_7 cell_7_7 cell_8_7 cell_9_7) true))
(assert
 (and (distinct cell_1_8 cell_2_8 cell_3_8 cell_4_8 cell_5_8 cell_6_8 cell_7_8 cell_8_8 cell_9_8) true))
(assert
 (and (distinct cell_1_9 cell_2_9 cell_3_9 cell_4_9 cell_5_9 cell_6_9 cell_7_9 cell_8_9 cell_9_9) true))
(assert
 (and (distinct cell_1_1 cell_1_2 cell_1_3 cell_2_1 cell_2_2 cell_2_3 cell_3_1 cell_3_2 cell_3_3) true))
(assert
 (and (distinct cell_1_4 cell_1_5 cell_1_6 cell_2_4 cell_2_5 cell_2_6 cell_3_4 cell_3_5 cell_3_6) true))
(assert
 (and (distinct cell_1_7 cell_1_8 cell_1_9 cell_2_7 cell_2_8 cell_2_9 cell_3_7 cell_3_8 cell_3_9) true))
(assert
 (and (distinct cell_4_1 cell_4_2 cell_4_3 cell_5_1 cell_5_2 cell_5_3 cell_6_1 cell_6_2 cell_6_3) true))
(assert
 (and (distinct cell_4_4 cell_4_5 cell_4_6 cell_5_4 cell_5_5 cell_5_6 cell_6_4 cell_6_5 cell_6_6) true))
(assert
 (and (distinct cell_4_7 cell_4_8 cell_4_9 cell_5_7 cell_5_8 cell_5_9 cell_6_7 cell_6_8 cell_6_9) true))
(assert
 (and (distinct cell_7_1 cell_7_2 cell_7_3 cell_8_1 cell_8_2 cell_8_3 cell_9_1 cell_9_2 cell_9_3) true))
(assert
 (and (distinct cell_7_4 cell_7_5 cell_7_6 cell_8_4 cell_8_5 cell_8_6 cell_9_4 cell_9_5 cell_9_6) true))
(assert
 (and (distinct cell_7_7 cell_7_8 cell_7_9 cell_8_7 cell_8_8 cell_8_9 cell_9_7 cell_9_8 cell_9_9) true))
(assert
 (let (($x6845 (and (distinct cell_5_9 cell_6_8 cell_7_7 cell_8_6) true)))
 (let (($x8286 (and (distinct cell_2_9 cell_3_8 cell_4_7 cell_5_6 cell_6_5 cell_7_4 cell_8_3 cell_9_2) true)))
 (let (($x773 (and (distinct cell_1_8 cell_2_7 cell_3_6 cell_4_5 cell_5_4 cell_6_3 cell_7_2 cell_8_1) true)))
 (let (($x3207 (and (distinct cell_1_5 cell_2_4 cell_3_3 cell_4_2) true)))
 (let (($x8314 (and (distinct cell_5_1 cell_6_2 cell_7_3 cell_8_4) true)))
 (let (($x6875 (and (distinct cell_2_1 cell_3_2 cell_4_3 cell_5_4 cell_6_5 cell_7_6 cell_8_7 cell_9_8) true)))
 (let (($x3293 (and (distinct cell_1_2 cell_2_3 cell_3_4 cell_4_5 cell_5_6 cell_6_7 cell_7_8 cell_8_9) true)))
 (let (($x6276 (and (distinct cell_1_5 cell_2_6 cell_3_7 cell_4_8) true)))
 (and $x6276 $x3293 $x6875 $x8314 $x3207 $x773 $x8286 $x6845))))))))))
(assert
 (= cell_6_3 2))
(check-sat)
